/* mcf-gen1.dat */

param p := 1 ;
param q := 4 ;
param N := 4 ;
param TRAFFIC := 12 ;

param : E : capa :=
1 1 0
1 2 5
1 3 13
1 4 0
2 1 0
2 2 0
2 3 4
2 4 9
3 1 0
3 2 0
3 3 0
3 4 10
4 1 0
4 2 0
4 3 0
4 4 0
;
param : EM : cost :=
1 1 100000
1 2 3
1 3 8
1 4 100000
2 1 100000
2 2 100000
2 3 2
2 4 12
3 1 100000
3 2 100000
3 3 100000
3 4 6
4 1 100000
4 2 100000
4 3 100000
4 4 100000
;
end;
